1375.03
0 1 2 3 4 5 6 7 8 9 10 11 12 14 19 0
0 13 15 16 17 18 21 23 0
0 25 26 27 28 29 30 31 32 34 35 36 72 0
0 33 37 38 39 40 41 43 44 47 68 65 90 0
0 48 50 51 52 53 54 55 56 59 61 69 24 0
0 57 58 60 63 64 66 67 0
0 70 71 73 76 77 78 42 45 0
0 79 80 81 82 83 84 85 86 87 88 89 0
0 91 92 93 94 95 96 97 98 99 100 0
0 46 49 20 22 75 74 62 0
